c generated by sgen
p cnf 73 156
-2 -3 -4 0
-1 -3 -4 0
-1 -2 -4 0
-1 -2 -3 0
-6 -7 -8 0
-5 -7 -8 0
-5 -6 -8 0
-5 -6 -7 0
-10 -11 -12 0
-9 -11 -12 0
-9 -10 -12 0
-9 -10 -11 0
-14 -15 -16 0
-13 -15 -16 0
-13 -14 -16 0
-13 -14 -15 0
-18 -19 -20 0
-17 -19 -20 0
-17 -18 -20 0
-17 -18 -19 0
-22 -23 -24 0
-21 -23 -24 0
-21 -22 -24 0
-21 -22 -23 0
-26 -27 -28 0
-25 -27 -28 0
-25 -26 -28 0
-25 -26 -27 0
-30 -31 -32 0
-29 -31 -32 0
-29 -30 -32 0
-29 -30 -31 0
-34 -35 -36 0
-33 -35 -36 0
-33 -34 -36 0
-33 -34 -35 0
-38 -39 -40 0
-37 -39 -40 0
-37 -38 -40 0
-37 -38 -39 0
-42 -43 -44 0
-41 -43 -44 0
-41 -42 -44 0
-41 -42 -43 0
-46 -47 -48 0
-45 -47 -48 0
-45 -46 -48 0
-45 -46 -47 0
-50 -51 -52 0
-49 -51 -52 0
-49 -50 -52 0
-49 -50 -51 0
-54 -55 -56 0
-53 -55 -56 0
-53 -54 -56 0
-53 -54 -55 0
-58 -59 -60 0
-57 -59 -60 0
-57 -58 -60 0
-57 -58 -59 0
-62 -63 -64 0
-61 -63 -64 0
-61 -62 -64 0
-61 -62 -63 0
-66 -67 -68 0
-65 -67 -68 0
-65 -66 -68 0
-65 -66 -67 0
-69 -70 -71 0
-69 -70 -72 0
-69 -70 -73 0
-69 -71 -72 0
-69 -71 -73 0
-69 -72 -73 0
-70 -71 -72 0
-70 -71 -73 0
-70 -72 -73 0
-71 -72 -73 0
17 12 1 0
66 12 1 0
66 17 1 0
66 17 12 0
2 56 25 0
69 56 25 0
69 2 25 0
69 2 56 0
59 67 71 0
15 67 71 0
15 59 71 0
15 59 67 0
62 58 31 0
37 58 31 0
37 62 31 0
37 62 58 0
21 72 47 0
32 72 47 0
32 21 47 0
32 21 72 0
57 27 8 0
10 27 8 0
10 57 8 0
10 57 27 0
3 30 52 0
20 30 52 0
20 3 52 0
20 3 30 0
43 28 19 0
38 28 19 0
38 43 19 0
38 43 28 0
34 55 18 0
48 55 18 0
48 34 18 0
48 34 55 0
26 61 49 0
16 61 49 0
16 26 49 0
16 26 61 0
50 5 39 0
53 5 39 0
53 50 39 0
53 50 5 0
64 54 22 0
65 54 22 0
65 64 22 0
65 64 54 0
68 14 33 0
7 14 33 0
7 68 33 0
7 68 14 0
29 11 35 0
44 11 35 0
44 29 35 0
44 29 11 0
46 4 13 0
41 4 13 0
41 46 13 0
41 46 4 0
70 42 63 0
6 42 63 0
6 70 63 0
6 70 42 0
60 45 23 0
51 45 23 0
51 60 23 0
51 60 45 0
9 73 40 0
9 73 24 0
9 73 36 0
9 40 24 0
9 40 36 0
9 24 36 0
73 40 24 0
73 40 36 0
73 24 36 0
40 24 36 0
